data;
param n:=100;
param w:=1 -180 2 -141 3 176 4 -355 5 138 6 -195 7 -313 8 -224 9 275 10 -254 11 352 12 -72 13 397 14 -172 15 -391 16 -538 17 -386 18 389 19 339 20 361 21 -413 22 205 23 407 24 291 25 -281 26 -366 27 345 28 -387 29 81 30 188 31 1 32 -172 33 -56 34 -243 35 -99 36 297 37 311 38 227 39 279 40 -279 41 -36 42 341 43 -134 44 -64 45 -21 46 31 47 -327 48 324 49 324 50 285 51 -41 52 394 53 -22 54 61 55 399 56 -111 57 -213 58 369 59 65 60 -320 61 -151 62 -81 63 129 64 -139 65 125 66 -338 67 -488 68 -247 69 -140 70 -269 71 -99 72 417 73 246 74 -218 75 93 76 -69 77 -218 78 11 79 14 80 260 81 -170 82 269 83 167 84 391 85 -333 86 -333 87 314 88 382 89 432 90 -546 91 -507 92 271 93 39 94 -100 95 -24 96 -13 97 -44 98 334 99 -547 100 334;
